column=6;
row=6;
max=4;
left=[0, 0, 0, 0, 0, 1];
right=[3, 0, 4, 2, 0, 4];
top=[2, 0, 0, 2, 3, 3];
bottom=[1, 2, 3, 3, 4, 2];
Board=[|0,1,0,2,0,0|0,4,2,0,3,0|2,3,0,0,0,4|0,0,0,4,0,2|4,0,0,3,2,0|1,2,3,0,0,0|]